
(set-logic ALL) 

(declare-datatype MyList ((Nil) (Cons (head Real) (tail MyList)) )) 
(declare-fun l0 () MyList) 
(declare-fun l1 () MyList) 
(declare-fun l2 () MyList) 
(declare-fun l3 () MyList) 
(declare-fun i0 () Real) 
(declare-fun i1 () Real) 
(assert (= l0 Nil) )
(assert (is-Nil l3) )
(assert (and (is-Nil l0) (= l2 Nil) (is-Cons Nil)) )
(assert (not (= l1 Nil)) )
(assert (or (= l2 Nil) (= l1 l2) (= l3 Nil)) )
(assert (not (is-Cons Nil)) )
(assert (or (is-Nil Nil) (= l3 l1)) )
(assert (not (= l0 Nil)) )
(check-sat)
